c WARNING: for repeatability, setting FPU to use double precision
d VARIABLES            138690       
d CONSTRAINTS          583353       
c ============================[ Problem Statistics ]=============================
c |                                                                             |
c |  Number of variables:        138690                                         |
c |  Number of clauses:          583353                                         |
c |  Parse time:                   0.09 s                                       |
c |                                                                             |
c ============================[ Search Statistics ]==============================
c | Conflicts |          ORIGINAL         |          LEARNT          | Progress |
c |           |    Vars  Clauses Literals |    Limit  Clauses Lit/Cl |          |
c ===============================================================================
c |       100 |  109114   506927  1232915 |   185873      100      8 | 21.325 % |
c |       250 |  109114   506927  1232915 |   204460      250      7 | 21.325 % |
c |       475 |  109114   506927  1232915 |   224906      475     57 | 21.325 % |
c |       812 |  109114   506927  1232915 |   247397      812     66 | 21.325 % |
c |      1318 |  109114   506927  1232915 |   272137     1318     99 | 21.325 % |
c |      2077 |  109114   506927  1232915 |   299350     2077    111 | 21.325 % |
c |      3216 |  109114   506927  1232915 |   329285     3216    119 | 21.325 % |
c |      4924 |  109114   506927  1232915 |   362214     4924    130 | 21.325 % |
c |      7486 |  109114   506927  1232915 |   398435     7486    133 | 21.325 % |
c |     11330 |  109114   506927  1232915 |   438279    11330    140 | 21.325 % |
c |     17096 |  109114   506927  1232915 |   482107    17096    140 | 21.325 % |
c ===============================================================================
c restarts              : 86
c conflicts             : 23718          (2248 /sec)
c decisions             : 116145         (0.00 % random) (11010 /sec)
c propagations          : 60667269       (5751183 /sec)
c conflict literals     : 3296762        (10.74 % deleted)
d RESTARTS             86
d FAILURES             23718        
d NODES                116145       
d BACKTRACKS           116145       
d PROPAGATIONS         60667269     
d NOGOODSIZE           139.00 
d MEMORY               70.00 
d TIME                 10.5487 

s SATISFIABLE
